0 0 0 0
0 1 0 0
0 2 0 0
0 3 2 0
0 4 0 4
0 5 0 4
0 6 0 4
0 7 0 4
0 8 0 6
0 9 1 6
0 10 1 13
0 11 2 9
0 12 0 8
0 13 1 13
0 14 0 13
0 15 0 8
0 16 1 9
0 17 0 16
0 18 0 17
0 19 0 16
0 20 2 16
0 21 0 19
0 22 1 21
0 23 0 22
0 24 0 21
0 25 1 22
0 26 1 22
0 27 0 25
0 28 2 22
0 29 1 27
0 30 1 27
0 31 0 32
